Version identifier: 12.10.0.0 | 2019-11-26 | 843d4de
CPXPARAM_Read_DataCheck                          1
CPXPARAM_RandomSeed                              201903125
CPXPARAM_TimeLimit                               7200
Parallel mode: deterministic, using up to 8 threads for concurrent optimization:
 * Starting dual Simplex on 1 thread...
 * Starting Barrier on 6 threads...
 * Starting primal Simplex on 1 thread...
Tried aggregator 1 time.
No LP presolve or aggregator reductions.
Presolve time = 0.00 sec. (2.61 ticks)

Iteration log . . .
Iteration:     1   Dual objective     =           849.000000
Iteration:    96   Dual objective     =           849.000000
Perturbation started.
Iteration:   101   Dual objective     =           849.000000
Iteration:   207   Dual objective     =           849.015175
Iteration:   378   Dual objective     =           849.015374
Iteration:   546   Dual objective     =           849.015376
Iteration:   719   Dual objective     =           849.015378
Iteration:   893   Dual objective     =           849.015379
Iteration:  1065   Dual objective     =           849.015380
Removing perturbation.

Dual simplex solved model.

